tsp_instances/TSP20/instance31.tsp
NODE_COORD_SECTION
0 176 81
1 113 33
2 182 19
3 162 19
4 166 53
5 2 146
6 124 72
7 148 120
8 162 178
9 45 78
10 195 20
11 178 90
12 96 82
13 195 189
14 140 160
15 198 197
16 177 80
17 7 20
18 161 59
19 178 72
