tsp_instances/TSP20/instance31.opt.tour
TOUR_SECTION
1
12
8
14
16
9
15
6
18
10
13
7
2
4
3
11
5
19
20
17
-1